Crypto/instances/samples/hf_n23/hf_n23_cnf13.sol
c DPLL-like Solver for max-min SAT
f file hf_n23_cnf13.cnf
p cnf 23 86
s max  86 14 -15 16 -13 2 -1 -3 -4 -7 5 8 11 9 -12 10 -23 -20 18 -6 -19 -22 -17 -21
s min  71 -14 15 -16 -13 2 1 -3 4 7 -5 8 11 9 12 10 23 20 -18 -6 -19 -22 -17 -21